NAME          COPTPROB
OBJSENSE
  MIN
ROWS
 N  __OBJ___
 L  C1      
 L  C16     
 L  C46     
 L  C92     
 L  C95     
 L  C137    
 L  C144    
 L  C159    
COLUMNS
    MARKER    'MARKER'                 'INTORG'
    x28       __OBJ___  844
    x28       C1        -1
    x28       C95       -1
    x42       __OBJ___  634
    x42       C16       -1
    x42       C92       -1
    x52       __OBJ___  7
    x52       C46       -1
    x98       __OBJ___  471
    x98       C137      -1
    x98       C144      -1
    x147      __OBJ___  424
    x147      C46       -1
    x147      C95       -1
    x211      __OBJ___  804
    x211      C1        -1
    x231      __OBJ___  977
    x231      C1        -1
    x231      C159      -1
    x246      __OBJ___  401
    x246      C144      -1
    x252      __OBJ___  81
    x252      C46       -1
    x252      C137      -1
    x307      __OBJ___  931
    x307      C92       -1
    x307      C144      -1
    x317      __OBJ___  198
    x317      C16       -1
    x317      C159      -1
    x394      __OBJ___  580
    x394      C92       -1
    MARKER    'MARKER'                 'INTEND'
RHS
    RHS       __OBJ___  -28825
    RHS       C1        -1
    RHS       C16       -1
    RHS       C46       -1
    RHS       C92       -1
    RHS       C95       -1
    RHS       C137      -1
    RHS       C144      -1
    RHS       C159      -1
BOUNDS
 UP BOUND     x28       1
 UP BOUND     x42       1
 UP BOUND     x52       1
 UP BOUND     x98       1
 UP BOUND     x147      1
 UP BOUND     x211      1
 UP BOUND     x231      1
 UP BOUND     x246      1
 UP BOUND     x252      1
 UP BOUND     x307      1
 UP BOUND     x317      1
 UP BOUND     x394      1
ENDATA
